Route #1: 27 21 22 10 6 7 11 16 8 17 24 35 42 41 29 28 23 34 40 50 53 65 66 61 62 75 76 85 84 79 78 74 64 73 72 59 60 52 49 39 33 32 48 47 58 71 83 94 95 87 96 88 89 97 98 90 99 100 91 80 67 54 43 44 30 18 12 1 9 2 3 13 14 4 5 15 26 20 19 25 31 36 45 56 55 68 63 51 46 37 38 57 70 69 77 81 92 93 82 86
Cost 46879
